p cnf 508 1497
a 9 11 13 15 0
d 1 9 0
d 2 11 0
d 5 13 0
d 7 15 0
d 3 11 0
d 4 9 11 0
d 6 9 11 13 0
d 8 9 11 13 15 0
d 10 9 11 13 15 0
d 12 9 11 13 15 0
d 14 9 11 13 15 0
d 16 9 11 13 15 0
d 17 13 0
d 18 9 11 13 0
d 19 9 11 13 15 0
d 20 9 11 13 15 0
d 21 9 11 13 15 0
d 22 9 11 13 15 0
d 23 9 11 13 15 0
d 24 9 11 13 15 0
d 25 9 0
d 26 9 11 0
d 27 9 11 13 0
d 28 9 11 13 15 0
d 29 9 11 13 15 0
d 30 9 11 13 15 0
d 31 9 11 13 15 0
d 32 9 11 13 15 0
d 33 9 11 13 15 0
d 34 9 11 0
d 35 9 11 13 0
d 36 15 0
d 37 9 11 13 15 0
d 38 9 11 13 15 0
d 39 9 11 13 15 0
d 40 9 11 13 15 0
d 41 9 11 13 15 0
d 42 9 11 13 15 0
d 43 9 11 0
d 44 9 11 13 0
d 45 9 11 13 15 0
d 46 9 11 13 15 0
d 47 9 11 13 15 0
d 48 9 11 13 15 0
d 49 9 11 13 15 0
d 50 9 11 13 15 0
d 51 9 11 13 0
d 52 9 11 13 15 0
d 53 9 11 13 15 0
d 54 9 11 13 15 0
d 55 9 11 13 15 0
d 56 9 11 13 15 0
d 57 9 11 13 15 0
d 58 9 11 13 0
d 59 9 11 13 15 0
d 60 9 11 13 15 0
d 61 9 11 13 15 0
d 62 9 11 13 15 0
d 63 9 11 13 15 0
d 64 9 11 13 15 0
d 65 9 11 13 15 0
d 66 9 0
d 67 9 11 13 15 0
d 68 9 11 13 15 0
d 69 9 11 13 15 0
d 70 9 11 13 15 0
d 71 9 11 13 15 0
d 72 9 11 13 15 0
d 73 9 11 13 15 0
d 74 9 11 13 15 0
d 75 9 11 13 15 0
d 76 9 11 13 15 0
d 77 9 11 13 15 0
d 78 9 11 13 15 0
d 79 9 11 13 15 0
d 80 9 11 13 15 0
d 81 9 11 13 15 0
d 82 9 11 13 15 0
d 83 9 11 13 15 0
d 84 9 11 13 15 0
d 85 9 11 13 15 0
d 86 9 11 13 15 0
d 87 9 11 13 15 0
d 88 9 11 13 15 0
d 89 9 11 13 15 0
d 90 9 11 13 15 0
d 91 9 11 13 15 0
d 92 9 11 13 15 0
d 93 9 11 13 15 0
d 94 9 11 13 15 0
d 95 9 11 13 15 0
d 96 9 11 13 15 0
d 97 9 11 13 15 0
d 98 9 11 13 15 0
d 99 9 11 13 15 0
d 100 9 11 13 15 0
d 101 9 11 13 15 0
d 102 9 11 13 15 0
d 103 9 11 13 15 0
d 104 9 11 13 0
d 105 9 11 13 15 0
d 106 9 11 13 15 0
d 107 9 11 13 15 0
d 108 9 11 13 15 0
d 109 9 11 13 15 0
d 110 9 11 13 15 0
d 111 9 11 13 15 0
d 112 9 11 13 15 0
d 113 9 11 13 15 0
d 114 9 11 13 15 0
d 115 9 11 13 15 0
d 116 9 11 13 15 0
d 117 11 0
d 118 9 11 13 15 0
d 119 9 11 13 15 0
d 120 9 11 13 15 0
d 121 9 11 13 15 0
d 122 9 11 13 15 0
d 123 9 11 13 15 0
d 124 9 11 13 15 0
d 125 9 11 13 15 0
d 126 9 11 13 15 0
d 127 9 11 13 15 0
d 128 9 11 13 15 0
d 129 9 11 13 15 0
d 130 9 11 13 15 0
d 131 9 11 13 15 0
d 132 9 11 13 15 0
d 133 9 11 13 15 0
d 134 9 11 13 15 0
d 135 9 11 13 15 0
d 136 9 11 13 15 0
d 137 9 11 13 15 0
d 138 9 11 13 15 0
d 139 9 11 13 15 0
d 140 9 11 13 15 0
d 141 9 11 13 15 0
d 142 9 11 13 15 0
d 143 9 11 13 15 0
d 144 9 11 13 15 0
d 145 9 11 13 15 0
d 146 9 11 13 15 0
d 147 9 11 13 15 0
d 148 9 11 13 15 0
d 149 9 11 13 15 0
d 150 9 11 13 15 0
d 151 9 11 13 15 0
d 152 9 11 13 15 0
d 153 9 11 13 15 0
d 154 9 11 13 15 0
d 155 9 11 13 15 0
d 156 9 11 13 15 0
d 157 9 11 13 15 0
d 158 9 11 13 15 0
d 159 9 11 13 15 0
d 160 9 11 13 15 0
d 161 9 11 13 15 0
d 162 9 11 13 15 0
d 163 9 11 13 15 0
d 164 9 11 13 15 0
d 165 9 11 13 15 0
d 166 9 11 13 15 0
d 167 9 11 13 15 0
d 168 9 11 13 15 0
d 169 9 11 13 15 0
d 170 9 11 13 15 0
d 171 9 11 13 15 0
d 172 9 11 13 15 0
d 173 9 11 13 15 0
d 174 9 11 13 15 0
d 175 9 11 13 15 0
d 176 9 11 13 15 0
d 177 9 11 13 15 0
d 178 9 11 13 15 0
d 179 9 11 13 15 0
d 180 9 11 13 15 0
d 181 9 11 13 15 0
d 182 9 11 13 15 0
d 183 9 11 13 15 0
d 184 9 11 13 15 0
d 185 9 11 13 15 0
d 186 9 11 13 15 0
d 187 9 11 13 15 0
d 188 9 11 13 15 0
d 189 9 11 13 15 0
d 190 9 11 13 15 0
d 191 9 11 13 15 0
d 192 9 11 13 15 0
d 193 9 11 13 15 0
d 194 9 11 13 15 0
d 195 9 11 13 15 0
d 196 9 11 13 15 0
d 197 9 11 13 15 0
d 198 13 0
d 199 9 11 13 15 0
d 200 9 11 13 15 0
d 201 9 11 13 15 0
d 202 9 11 13 15 0
d 203 9 11 13 15 0
d 204 9 11 13 15 0
d 205 9 11 13 15 0
d 206 9 11 13 15 0
d 207 9 11 13 15 0
d 208 9 11 13 15 0
d 209 9 11 13 15 0
d 210 9 11 13 15 0
d 211 9 11 13 15 0
d 212 9 11 13 15 0
d 213 9 11 13 15 0
d 214 9 11 13 15 0
d 215 9 11 13 15 0
d 216 9 11 13 15 0
d 217 9 11 13 15 0
d 218 9 11 13 15 0
d 219 9 11 13 15 0
d 220 9 11 13 15 0
d 221 9 11 13 15 0
d 222 9 11 13 15 0
d 223 9 11 13 15 0
d 224 9 11 13 15 0
d 225 9 11 13 15 0
d 226 9 11 13 15 0
d 227 9 11 13 15 0
d 228 9 11 13 15 0
d 229 9 11 13 15 0
d 230 9 11 13 15 0
d 231 9 11 13 15 0
d 232 9 11 13 15 0
d 233 9 11 13 15 0
d 234 9 11 13 15 0
d 235 9 11 13 15 0
d 236 9 11 13 15 0
d 237 9 11 13 15 0
d 238 9 11 13 15 0
d 239 9 11 13 15 0
d 240 9 11 13 15 0
d 241 9 11 13 15 0
d 242 9 11 13 15 0
d 243 9 11 13 15 0
d 244 9 11 13 15 0
d 245 9 11 13 15 0
d 246 9 11 13 15 0
d 247 9 11 13 15 0
d 248 9 11 13 15 0
d 249 9 11 13 15 0
d 250 9 11 13 15 0
d 251 9 11 13 15 0
d 252 9 11 13 15 0
d 253 9 11 13 15 0
d 254 9 11 13 15 0
d 255 9 11 13 15 0
d 256 9 11 13 15 0
d 257 9 11 13 15 0
d 258 9 11 13 15 0
d 259 9 11 13 15 0
d 260 9 11 13 15 0
d 261 9 11 13 15 0
d 262 9 11 13 15 0
d 263 9 11 13 15 0
d 264 9 11 13 15 0
d 265 9 11 13 15 0
d 266 9 11 13 15 0
d 267 9 11 13 15 0
d 268 9 11 13 15 0
d 269 9 11 13 15 0
d 270 9 11 13 15 0
d 271 9 11 13 15 0
d 272 9 11 13 15 0
d 273 9 11 13 15 0
d 274 9 11 13 15 0
d 275 9 11 13 15 0
d 276 9 11 13 15 0
d 277 9 11 13 15 0
d 278 9 11 13 15 0
d 279 9 11 13 15 0
d 280 9 11 13 15 0
d 281 9 11 13 15 0
d 282 9 11 13 15 0
d 283 9 11 13 15 0
d 284 9 11 13 15 0
d 285 9 11 13 15 0
d 286 9 11 13 15 0
d 287 9 11 13 15 0
d 288 9 11 13 15 0
d 289 9 11 13 15 0
d 290 9 11 13 15 0
d 291 9 11 13 15 0
d 292 9 11 13 15 0
d 293 9 11 13 15 0
d 294 9 11 13 15 0
d 295 9 11 13 15 0
d 296 9 11 13 15 0
d 297 9 11 13 15 0
d 298 9 11 13 15 0
d 299 9 11 13 15 0
d 300 9 11 13 15 0
d 301 9 11 13 15 0
d 302 9 11 13 15 0
d 303 9 11 13 15 0
d 304 9 11 13 15 0
d 305 9 11 13 15 0
d 306 9 11 13 15 0
d 307 9 11 13 15 0
d 308 9 11 13 15 0
d 309 9 11 13 15 0
d 310 9 11 13 15 0
d 311 9 11 13 15 0
d 312 9 11 13 15 0
d 313 15 0
d 314 9 11 13 15 0
d 315 9 11 13 15 0
d 316 9 11 13 15 0
d 317 9 11 13 15 0
d 318 9 11 13 15 0
d 319 9 11 13 15 0
d 320 9 11 13 15 0
d 321 9 11 13 15 0
d 322 9 11 13 15 0
d 323 9 11 13 15 0
d 324 9 11 13 15 0
d 325 9 11 13 15 0
d 326 9 11 13 15 0
d 327 9 11 13 15 0
d 328 9 11 13 15 0
d 329 9 11 13 15 0
d 330 9 11 13 15 0
d 331 9 11 13 15 0
d 332 9 11 13 15 0
d 333 9 11 13 15 0
d 334 9 11 13 15 0
d 335 9 11 13 15 0
d 336 9 11 13 15 0
d 337 9 11 13 15 0
d 338 9 11 13 15 0
d 339 9 11 13 15 0
d 340 9 11 13 15 0
d 341 9 11 13 15 0
d 342 9 11 13 15 0
d 343 9 11 13 15 0
d 344 9 11 13 15 0
d 345 9 11 13 15 0
d 346 9 11 13 15 0
d 347 9 11 13 15 0
d 348 9 11 13 15 0
d 349 9 11 13 15 0
d 350 9 11 13 15 0
d 351 9 11 13 15 0
d 352 9 11 13 15 0
d 353 9 11 13 15 0
d 354 9 11 13 15 0
d 355 9 11 13 15 0
d 356 9 11 13 15 0
d 357 9 11 13 15 0
d 358 9 11 13 15 0
d 359 9 11 13 15 0
d 360 9 11 13 15 0
d 361 9 11 13 15 0
d 362 9 11 13 15 0
d 363 9 11 13 15 0
d 364 9 11 13 15 0
d 365 9 11 13 15 0
d 366 9 11 13 15 0
d 367 9 11 13 15 0
d 368 9 11 13 15 0
d 369 9 11 13 15 0
d 370 9 11 13 15 0
d 371 9 11 13 15 0
d 372 9 11 13 15 0
d 373 9 11 13 15 0
d 374 9 11 13 15 0
d 375 9 11 13 15 0
d 376 9 11 13 15 0
d 377 9 11 13 15 0
d 378 9 11 13 15 0
d 379 9 11 13 15 0
d 380 9 11 13 15 0
d 381 9 11 13 15 0
d 382 9 11 13 15 0
d 383 9 11 13 15 0
d 384 9 11 13 15 0
d 385 9 11 13 15 0
d 386 9 11 13 15 0
d 387 9 11 13 15 0
d 388 9 11 13 15 0
d 389 9 11 13 15 0
d 390 9 11 13 15 0
d 391 9 11 13 15 0
d 392 9 11 13 15 0
d 393 9 11 13 15 0
d 394 9 11 13 15 0
d 395 9 11 13 15 0
d 396 9 11 13 15 0
d 397 9 11 13 15 0
d 398 9 11 13 15 0
d 399 9 11 13 15 0
d 400 9 11 13 15 0
d 401 9 11 13 15 0
d 402 9 11 13 15 0
d 403 9 11 13 15 0
d 404 9 11 13 15 0
d 405 9 11 13 15 0
d 406 9 11 13 15 0
d 407 9 11 13 15 0
d 408 9 11 13 15 0
d 409 9 11 13 15 0
d 410 9 11 13 15 0
d 411 9 11 13 15 0
d 412 9 11 13 15 0
d 413 9 11 13 15 0
d 414 9 11 13 15 0
d 415 9 11 13 15 0
d 416 9 11 13 15 0
d 417 9 11 13 15 0
d 418 9 11 13 15 0
d 419 9 11 13 15 0
d 420 9 11 13 15 0
d 421 9 11 13 15 0
d 422 9 11 13 15 0
d 423 9 11 13 15 0
d 424 9 11 13 15 0
d 425 9 11 13 15 0
d 426 9 11 13 15 0
d 427 9 11 13 15 0
d 428 9 11 13 15 0
d 429 9 11 13 15 0
d 430 9 11 13 15 0
d 431 9 11 13 15 0
d 432 9 11 13 15 0
d 433 9 11 13 15 0
d 434 9 11 13 15 0
d 435 9 11 13 15 0
d 436 9 11 13 15 0
d 437 9 11 13 15 0
d 438 9 11 13 15 0
d 439 9 11 13 15 0
d 440 9 11 13 15 0
d 441 9 11 13 15 0
d 442 9 11 13 15 0
d 443 9 11 13 15 0
d 444 9 11 13 15 0
d 445 9 11 13 15 0
d 446 9 11 13 15 0
d 447 9 11 13 15 0
d 448 9 11 13 15 0
d 449 9 11 13 15 0
d 450 9 11 13 15 0
d 451 9 11 13 15 0
d 452 9 11 13 15 0
d 453 9 11 13 15 0
d 454 9 11 13 15 0
d 455 9 11 13 15 0
d 456 9 11 13 15 0
d 457 9 11 13 15 0
d 458 9 11 13 15 0
d 459 9 11 13 15 0
d 460 9 11 13 15 0
d 461 9 11 13 15 0
d 462 9 11 13 15 0
d 463 9 11 13 15 0
d 464 9 11 13 15 0
d 465 9 11 13 15 0
d 466 9 11 13 15 0
d 467 9 11 13 15 0
d 468 9 11 13 15 0
d 469 9 11 13 15 0
d 470 9 11 13 15 0
d 471 9 11 13 15 0
d 472 9 11 13 15 0
d 473 9 11 13 15 0
d 474 9 11 13 15 0
d 475 9 11 13 15 0
d 476 9 11 13 15 0
d 477 9 11 13 15 0
d 478 9 11 13 15 0
d 479 9 11 13 15 0
d 480 9 11 13 15 0
d 481 9 11 13 15 0
d 482 9 11 13 15 0
d 483 9 11 13 15 0
d 484 9 11 13 15 0
d 485 9 11 13 15 0
d 486 9 11 13 15 0
d 487 9 11 13 15 0
d 488 9 11 13 15 0
d 489 9 11 13 15 0
d 490 9 11 13 15 0
d 491 9 11 13 15 0
d 492 9 11 13 15 0
d 493 9 11 13 15 0
d 494 9 11 13 15 0
d 495 9 11 13 15 0
d 496 9 11 13 15 0
d 497 9 11 13 15 0
d 498 9 11 13 15 0
d 499 9 11 13 15 0
d 500 9 11 13 15 0
d 501 9 11 13 15 0
d 502 9 11 13 15 0
d 503 9 11 13 15 0
d 504 9 11 13 15 0
d 505 9 11 0
d 506 9 11 13 0
d 507 9 11 13 15 0
d 508 9 11 13 15 0
3 2 0
-3 -2 0
-4 1 0
-4 3 0
4 -1 -3 0
-6 4 0
-6 5 0
6 -4 -5 0
-8 6 0
-8 7 0
8 -6 -7 0
-10 8 0
-10 9 0
10 -8 -9 0
-12 10 0
-12 11 0
12 -10 -11 0
-14 12 0
-14 13 0
14 -12 -13 0
-16 14 0
-16 15 0
16 -14 -15 0
17 5 0
-17 -5 0
-18 4 0
-18 17 0
18 -4 -17 0
-19 18 0
-19 7 0
19 -18 -7 0
-20 19 0
-20 9 0
20 -19 -9 0
-21 20 0
-21 11 0
21 -20 -11 0
-22 21 0
-22 13 0
22 -21 -13 0
-23 22 0
-23 15 0
23 -22 -15 0
24 -16 0
24 -23 0
-24 16 23 0
25 1 0
-25 -1 0
-26 25 0
-26 3 0
26 -25 -3 0
-27 26 0
-27 17 0
27 -26 -17 0
-28 27 0
-28 7 0
28 -27 -7 0
-29 28 0
-29 9 0
29 -28 -9 0
-30 29 0
-30 11 0
30 -29 -11 0
-31 30 0
-31 13 0
31 -30 -13 0
-32 31 0
-32 15 0
32 -31 -15 0
33 -24 0
33 -32 0
-33 24 32 0
-34 1 0
-34 2 0
34 -1 -2 0
-35 34 0
-35 5 0
35 -34 -5 0
36 7 0
-36 -7 0
-37 35 0
-37 36 0
37 -35 -36 0
-38 37 0
-38 9 0
38 -37 -9 0
-39 38 0
-39 11 0
39 -38 -11 0
-40 39 0
-40 13 0
40 -39 -13 0
-41 40 0
-41 15 0
41 -40 -15 0
42 -33 0
42 -41 0
-42 33 41 0
-43 25 0
-43 2 0
43 -25 -2 0
-44 43 0
-44 5 0
44 -43 -5 0
-45 44 0
-45 36 0
45 -44 -36 0
-46 45 0
-46 9 0
46 -45 -9 0
-47 46 0
-47 11 0
47 -46 -11 0
-48 47 0
-48 13 0
48 -47 -13 0
-49 48 0
-49 15 0
49 -48 -15 0
50 -42 0
50 -49 0
-50 42 49 0
-51 34 0
-51 17 0
51 -34 -17 0
-52 51 0
-52 36 0
52 -51 -36 0
-53 52 0
-53 9 0
53 -52 -9 0
-54 53 0
-54 11 0
54 -53 -11 0
-55 54 0
-55 13 0
55 -54 -13 0
-56 55 0
-56 15 0
56 -55 -15 0
57 -50 0
57 -56 0
-57 50 56 0
-58 43 0
-58 17 0
58 -43 -17 0
-59 58 0
-59 36 0
59 -58 -36 0
-60 59 0
-60 9 0
60 -59 -9 0
-61 60 0
-61 11 0
61 -60 -11 0
-62 61 0
-62 13 0
62 -61 -13 0
-63 62 0
-63 15 0
63 -62 -15 0
64 -57 0
64 -63 0
-64 57 63 0
-65 35 0
-65 7 0
65 -35 -7 0
66 9 0
-66 -9 0
-67 65 0
-67 66 0
67 -65 -66 0
-68 67 0
-68 11 0
68 -67 -11 0
-69 68 0
-69 13 0
69 -68 -13 0
-70 69 0
-70 15 0
70 -69 -15 0
71 -64 0
71 -70 0
-71 64 70 0
-72 58 0
-72 7 0
72 -58 -7 0
-73 72 0
-73 66 0
73 -72 -66 0
-74 73 0
-74 11 0
74 -73 -11 0
-75 74 0
-75 13 0
75 -74 -13 0
-76 75 0
-76 15 0
76 -75 -15 0
77 -71 0
77 -76 0
-77 71 76 0
-78 19 0
-78 66 0
78 -19 -66 0
-79 78 0
-79 11 0
79 -78 -11 0
-80 79 0
-80 13 0
80 -79 -13 0
-81 80 0
-81 15 0
81 -80 -15 0
82 -77 0
82 -81 0
-82 77 81 0
-83 28 0
-83 66 0
83 -28 -66 0
-84 83 0
-84 11 0
84 -83 -11 0
-85 84 0
-85 13 0
85 -84 -13 0
-86 85 0
-86 15 0
86 -85 -15 0
87 -82 0
87 -86 0
-87 82 86 0
-88 37 0
-88 66 0
88 -37 -66 0
-89 88 0
-89 11 0
89 -88 -11 0
-90 89 0
-90 13 0
90 -89 -13 0
-91 90 0
-91 15 0
91 -90 -15 0
92 -87 0
92 -91 0
-92 87 91 0
-93 45 0
-93 66 0
93 -45 -66 0
-94 93 0
-94 11 0
94 -93 -11 0
-95 94 0
-95 13 0
95 -94 -13 0
-96 95 0
-96 15 0
96 -95 -15 0
97 -92 0
97 -96 0
-97 92 96 0
-98 6 0
-98 36 0
98 -6 -36 0
-99 98 0
-99 66 0
99 -98 -66 0
-100 99 0
-100 11 0
100 -99 -11 0
-101 100 0
-101 13 0
101 -100 -13 0
-102 101 0
-102 15 0
102 -101 -15 0
103 -97 0
103 -102 0
-103 97 102 0
-104 26 0
-104 5 0
104 -26 -5 0
-105 104 0
-105 36 0
105 -104 -36 0
-106 105 0
-106 66 0
106 -105 -66 0
-107 106 0
-107 11 0
107 -106 -11 0
-108 107 0
-108 13 0
108 -107 -13 0
-109 108 0
-109 15 0
109 -108 -15 0
110 -103 0
110 -109 0
-110 103 109 0
-111 27 0
-111 36 0
111 -27 -36 0
-112 111 0
-112 66 0
112 -111 -66 0
-113 112 0
-113 11 0
113 -112 -11 0
-114 113 0
-114 13 0
114 -113 -13 0
-115 114 0
-115 15 0
115 -114 -15 0
116 -110 0
116 -115 0
-116 110 115 0
117 11 0
-117 -11 0
-118 10 0
-118 117 0
118 -10 -117 0
-119 118 0
-119 13 0
119 -118 -13 0
-120 119 0
-120 15 0
120 -119 -15 0
121 -116 0
121 -120 0
-121 116 120 0
-122 104 0
-122 7 0
122 -104 -7 0
-123 122 0
-123 9 0
123 -122 -9 0
-124 123 0
-124 117 0
124 -123 -117 0
-125 124 0
-125 13 0
125 -124 -13 0
-126 125 0
-126 15 0
126 -125 -15 0
127 -121 0
127 -126 0
-127 121 126 0
-128 72 0
-128 9 0
128 -72 -9 0
-129 128 0
-129 117 0
129 -128 -117 0
-130 129 0
-130 13 0
130 -129 -13 0
-131 130 0
-131 15 0
131 -130 -15 0
132 -127 0
132 -131 0
-132 127 131 0
-133 20 0
-133 117 0
133 -20 -117 0
-134 133 0
-134 13 0
134 -133 -13 0
-135 134 0
-135 15 0
135 -134 -15 0
136 -132 0
136 -135 0
-136 132 135 0
-137 46 0
-137 117 0
137 -46 -117 0
-138 137 0
-138 13 0
138 -137 -13 0
-139 138 0
-139 15 0
139 -138 -15 0
140 -136 0
140 -139 0
-140 136 139 0
-141 60 0
-141 117 0
141 -60 -117 0
-142 141 0
-142 13 0
142 -141 -13 0
-143 142 0
-143 15 0
143 -142 -15 0
144 -140 0
144 -143 0
-144 140 143 0
-145 18 0
-145 36 0
145 -18 -36 0
-146 145 0
-146 9 0
146 -145 -9 0
-147 146 0
-147 117 0
147 -146 -117 0
-148 147 0
-148 13 0
148 -147 -13 0
-149 148 0
-149 15 0
149 -148 -15 0
150 -144 0
150 -149 0
-150 144 149 0
-151 111 0
-151 9 0
151 -111 -9 0
-152 151 0
-152 117 0
152 -151 -117 0
-153 152 0
-153 13 0
153 -152 -13 0
-154 153 0
-154 15 0
154 -153 -15 0
155 -150 0
155 -154 0
-155 150 154 0
-156 67 0
-156 117 0
156 -67 -117 0
-157 156 0
-157 13 0
157 -156 -13 0
-158 157 0
-158 15 0
158 -157 -15 0
159 -155 0
159 -158 0
-159 155 158 0
-160 122 0
-160 66 0
160 -122 -66 0
-161 160 0
-161 117 0
161 -160 -117 0
-162 161 0
-162 13 0
162 -161 -13 0
-163 162 0
-163 15 0
163 -162 -15 0
164 -159 0
164 -163 0
-164 159 163 0
-165 51 0
-165 7 0
165 -51 -7 0
-166 165 0
-166 66 0
166 -165 -66 0
-167 166 0
-167 117 0
167 -166 -117 0
-168 167 0
-168 13 0
168 -167 -13 0
-169 168 0
-169 15 0
169 -168 -15 0
170 -164 0
170 -169 0
-170 164 169 0
-171 78 0
-171 117 0
171 -78 -117 0
-172 171 0
-172 13 0
172 -171 -13 0
-173 172 0
-173 15 0
173 -172 -15 0
174 -170 0
174 -173 0
-174 170 173 0
-175 83 0
-175 117 0
175 -83 -117 0
-176 175 0
-176 13 0
176 -175 -13 0
-177 176 0
-177 15 0
177 -176 -15 0
178 -174 0
178 -177 0
-178 174 177 0
-179 88 0
-179 117 0
179 -88 -117 0
-180 179 0
-180 13 0
180 -179 -13 0
-181 180 0
-181 15 0
181 -180 -15 0
182 -178 0
182 -181 0
-182 178 181 0
-183 93 0
-183 117 0
183 -93 -117 0
-184 183 0
-184 13 0
184 -183 -13 0
-185 184 0
-185 15 0
185 -184 -15 0
186 -182 0
186 -185 0
-186 182 185 0
-187 99 0
-187 117 0
187 -99 -117 0
-188 187 0
-188 13 0
188 -187 -13 0
-189 188 0
-189 15 0
189 -188 -15 0
190 -186 0
190 -189 0
-190 186 189 0
-191 145 0
-191 66 0
191 -145 -66 0
-192 191 0
-192 117 0
192 -191 -117 0
-193 192 0
-193 13 0
193 -192 -13 0
-194 193 0
-194 15 0
194 -193 -15 0
195 -190 0
195 -194 0
-195 190 194 0
-196 65 0
-196 9 0
196 -65 -9 0
-197 196 0
-197 11 0
197 -196 -11 0
198 13 0
-198 -13 0
-199 197 0
-199 198 0
199 -197 -198 0
-200 199 0
-200 15 0
200 -199 -15 0
201 -195 0
201 -200 0
-201 195 200 0
-202 44 0
-202 7 0
202 -44 -7 0
-203 202 0
-203 9 0
203 -202 -9 0
-204 203 0
-204 11 0
204 -203 -11 0
-205 204 0
-205 198 0
205 -204 -198 0
-206 205 0
-206 15 0
206 -205 -15 0
207 -201 0
207 -206 0
-207 201 206 0
-208 30 0
-208 198 0
208 -30 -198 0
-209 208 0
-209 15 0
209 -208 -15 0
210 -207 0
210 -209 0
-210 207 209 0
-211 98 0
-211 9 0
211 -98 -9 0
-212 211 0
-212 11 0
212 -211 -11 0
-213 212 0
-213 198 0
213 -212 -198 0
-214 213 0
-214 15 0
214 -213 -15 0
215 -210 0
215 -214 0
-215 210 214 0
-216 146 0
-216 11 0
216 -146 -11 0
-217 216 0
-217 198 0
217 -216 -198 0
-218 217 0
-218 15 0
218 -217 -15 0
219 -215 0
219 -218 0
-219 215 218 0
-220 68 0
-220 198 0
220 -68 -198 0
-221 220 0
-221 15 0
221 -220 -15 0
222 -219 0
222 -221 0
-222 219 221 0
-223 160 0
-223 11 0
223 -160 -11 0
-224 223 0
-224 198 0
224 -223 -198 0
-225 224 0
-225 15 0
225 -224 -15 0
226 -222 0
226 -225 0
-226 222 225 0
-227 79 0
-227 198 0
227 -79 -198 0
-228 227 0
-228 15 0
228 -227 -15 0
229 -226 0
229 -228 0
-229 226 228 0
-230 52 0
-230 66 0
230 -52 -66 0
-231 230 0
-231 11 0
231 -230 -11 0
-232 231 0
-232 198 0
232 -231 -198 0
-233 232 0
-233 15 0
233 -232 -15 0
234 -229 0
234 -233 0
-234 229 233 0
-235 59 0
-235 66 0
235 -59 -66 0
-236 235 0
-236 11 0
236 -235 -11 0
-237 236 0
-237 198 0
237 -236 -198 0
-238 237 0
-238 15 0
238 -237 -15 0
239 -234 0
239 -238 0
-239 234 238 0
-240 191 0
-240 11 0
240 -191 -11 0
-241 240 0
-241 198 0
241 -240 -198 0
-242 241 0
-242 15 0
242 -241 -15 0
243 -239 0
243 -242 0
-243 239 242 0
-244 113 0
-244 198 0
244 -113 -198 0
-245 244 0
-245 15 0
245 -244 -15 0
246 -243 0
246 -245 0
-246 243 245 0
-247 196 0
-247 117 0
247 -196 -117 0
-248 247 0
-248 198 0
248 -247 -198 0
-249 248 0
-249 15 0
249 -248 -15 0
250 -246 0
250 -249 0
-250 246 249 0
-251 124 0
-251 198 0
251 -124 -198 0
-252 251 0
-252 15 0
252 -251 -15 0
253 -250 0
253 -252 0
-253 250 252 0
-254 165 0
-254 9 0
254 -165 -9 0
-255 254 0
-255 117 0
255 -254 -117 0
-256 255 0
-256 198 0
256 -255 -198 0
-257 256 0
-257 15 0
257 -256 -15 0
258 -253 0
258 -257 0
-258 253 257 0
-259 129 0
-259 198 0
259 -129 -198 0
-260 259 0
-260 15 0
260 -259 -15 0
261 -258 0
261 -260 0
-261 258 260 0
-262 133 0
-262 198 0
262 -133 -198 0
-263 262 0
-263 15 0
263 -262 -15 0
264 -261 0
264 -263 0
-264 261 263 0
-265 29 0
-265 117 0
265 -29 -117 0
-266 265 0
-266 198 0
266 -265 -198 0
-267 266 0
-267 15 0
267 -266 -15 0
268 -264 0
268 -267 0
-268 264 267 0
-269 38 0
-269 117 0
269 -38 -117 0
-270 269 0
-270 198 0
270 -269 -198 0
-271 270 0
-271 15 0
271 -270 -15 0
272 -268 0
272 -271 0
-272 268 271 0
-273 137 0
-273 198 0
273 -137 -198 0
-274 273 0
-274 15 0
274 -273 -15 0
275 -272 0
275 -274 0
-275 272 274 0
-276 211 0
-276 117 0
276 -211 -117 0
-277 276 0
-277 198 0
277 -276 -198 0
-278 277 0
-278 15 0
278 -277 -15 0
279 -275 0
279 -278 0
-279 275 278 0
-280 141 0
-280 198 0
280 -141 -198 0
-281 280 0
-281 15 0
281 -280 -15 0
282 -279 0
282 -281 0
-282 279 281 0
-283 152 0
-283 198 0
283 -152 -198 0
-284 283 0
-284 15 0
284 -283 -15 0
285 -282 0
285 -284 0
-285 282 284 0
-286 8 0
-286 66 0
286 -8 -66 0
-287 286 0
-287 117 0
287 -286 -117 0
-288 287 0
-288 198 0
288 -287 -198 0
-289 288 0
-289 15 0
289 -288 -15 0
290 -285 0
290 -289 0
-290 285 289 0
-291 167 0
-291 198 0
291 -167 -198 0
-292 291 0
-292 15 0
292 -291 -15 0
293 -290 0
293 -292 0
-293 290 292 0
-294 183 0
-294 198 0
294 -183 -198 0
-295 294 0
-295 15 0
295 -294 -15 0
296 -293 0
296 -295 0
-296 293 295 0
-297 187 0
-297 198 0
297 -187 -198 0
-298 297 0
-298 15 0
298 -297 -15 0
299 -296 0
299 -298 0
-299 296 298 0
-300 106 0
-300 117 0
300 -106 -117 0
-301 300 0
-301 198 0
301 -300 -198 0
-302 301 0
-302 15 0
302 -301 -15 0
303 -299 0
303 -302 0
-303 299 302 0
-304 230 0
-304 117 0
304 -230 -117 0
-305 304 0
-305 198 0
305 -304 -198 0
-306 305 0
-306 15 0
306 -305 -15 0
307 -303 0
307 -306 0
-307 303 306 0
-308 235 0
-308 117 0
308 -235 -117 0
-309 308 0
-309 198 0
309 -308 -198 0
-310 309 0
-310 15 0
310 -309 -15 0
311 -307 0
311 -310 0
-311 307 310 0
-312 197 0
-312 13 0
312 -197 -13 0
313 15 0
-313 -15 0
-314 312 0
-314 313 0
314 -312 -313 0
315 -311 0
315 -314 0
-315 311 314 0
-316 204 0
-316 13 0
316 -204 -13 0
-317 316 0
-317 313 0
317 -316 -313 0
318 -315 0
318 -317 0
-318 315 317 0
-319 14 0
-319 313 0
319 -14 -313 0
320 -318 0
320 -319 0
-320 318 319 0
-321 123 0
-321 11 0
321 -123 -11 0
-322 321 0
-322 13 0
322 -321 -13 0
-323 322 0
-323 313 0
323 -322 -313 0
324 -320 0
324 -323 0
-324 320 323 0
-325 254 0
-325 11 0
325 -254 -11 0
-326 325 0
-326 13 0
326 -325 -13 0
-327 326 0
-327 313 0
327 -326 -313 0
328 -324 0
328 -327 0
-328 324 327 0
-329 128 0
-329 11 0
329 -128 -11 0
-330 329 0
-330 13 0
330 -329 -13 0
-331 330 0
-331 313 0
331 -330 -313 0
332 -328 0
332 -331 0
-332 328 331 0
-333 40 0
-333 313 0
333 -40 -313 0
334 -332 0
334 -333 0
-334 332 333 0
-335 212 0
-335 13 0
335 -212 -13 0
-336 335 0
-336 313 0
336 -335 -313 0
337 -334 0
337 -336 0
-337 334 336 0
-338 105 0
-338 9 0
338 -105 -9 0
-339 338 0
-339 11 0
339 -338 -11 0
-340 339 0
-340 13 0
340 -339 -13 0
-341 340 0
-341 313 0
341 -340 -313 0
342 -337 0
342 -341 0
-342 337 341 0
-343 62 0
-343 313 0
343 -62 -313 0
344 -342 0
344 -343 0
-344 342 343 0
-345 216 0
-345 13 0
345 -216 -13 0
-346 345 0
-346 313 0
346 -345 -313 0
347 -344 0
347 -346 0
-347 344 346 0
-348 151 0
-348 11 0
348 -151 -11 0
-349 348 0
-349 13 0
349 -348 -13 0
-350 349 0
-350 313 0
350 -349 -313 0
351 -347 0
351 -350 0
-351 347 350 0
-352 202 0
-352 66 0
352 -202 -66 0
-353 352 0
-353 11 0
353 -352 -11 0
-354 353 0
-354 13 0
354 -353 -13 0
-355 354 0
-355 313 0
355 -354 -313 0
356 -351 0
356 -355 0
-356 351 355 0
-357 286 0
-357 11 0
357 -286 -11 0
-358 357 0
-358 13 0
358 -357 -13 0
-359 358 0
-359 313 0
359 -358 -313 0
360 -356 0
360 -359 0
-360 356 359 0
-361 223 0
-361 13 0
361 -223 -13 0
-362 361 0
-362 313 0
362 -361 -313 0
363 -360 0
363 -362 0
-363 360 362 0
-364 75 0
-364 313 0
364 -75 -313 0
365 -363 0
365 -364 0
-365 363 364 0
-366 85 0
-366 313 0
366 -85 -313 0
367 -365 0
367 -366 0
-367 365 366 0
-368 90 0
-368 313 0
368 -90 -313 0
369 -367 0
369 -368 0
-369 367 368 0
-370 101 0
-370 313 0
370 -101 -313 0
371 -369 0
371 -370 0
-371 369 370 0
-372 236 0
-372 13 0
372 -236 -13 0
-373 372 0
-373 313 0
373 -372 -313 0
374 -371 0
374 -373 0
-374 371 373 0
-375 240 0
-375 13 0
375 -240 -13 0
-376 375 0
-376 313 0
376 -375 -313 0
377 -374 0
377 -376 0
-377 374 376 0
-378 203 0
-378 117 0
378 -203 -117 0
-379 378 0
-379 13 0
379 -378 -13 0
-380 379 0
-380 313 0
380 -379 -313 0
381 -377 0
381 -380 0
-381 377 380 0
-382 265 0
-382 13 0
382 -265 -13 0
-383 382 0
-383 313 0
383 -382 -313 0
384 -381 0
384 -383 0
-384 381 383 0
-385 269 0
-385 13 0
385 -269 -13 0
-386 385 0
-386 313 0
386 -385 -313 0
387 -384 0
387 -386 0
-387 384 386 0
-388 138 0
-388 313 0
388 -138 -313 0
389 -387 0
389 -388 0
-389 387 388 0
-390 338 0
-390 117 0
390 -338 -117 0
-391 390 0
-391 13 0
391 -390 -13 0
-392 391 0
-392 313 0
392 -391 -313 0
393 -389 0
393 -392 0
-393 389 392 0
-394 148 0
-394 313 0
394 -148 -313 0
395 -393 0
395 -394 0
-395 393 394 0
-396 172 0
-396 313 0
396 -172 -313 0
397 -395 0
397 -396 0
-397 395 396 0
-398 176 0
-398 313 0
398 -176 -313 0
399 -397 0
399 -398 0
-399 397 398 0
-400 180 0
-400 313 0
400 -180 -313 0
401 -399 0
401 -400 0
-401 399 400 0
-402 188 0
-402 313 0
402 -188 -313 0
403 -401 0
403 -402 0
-403 401 402 0
-404 300 0
-404 13 0
404 -300 -13 0
-405 404 0
-405 313 0
405 -404 -313 0
406 -403 0
406 -405 0
-406 403 405 0
-407 304 0
-407 13 0
407 -304 -13 0
-408 407 0
-408 313 0
408 -407 -313 0
409 -406 0
409 -408 0
-409 406 408 0
-410 193 0
-410 313 0
410 -193 -313 0
411 -409 0
411 -410 0
-411 409 410 0
-412 199 0
-412 313 0
412 -199 -313 0
413 -411 0
413 -412 0
-413 411 412 0
-414 205 0
-414 313 0
414 -205 -313 0
415 -413 0
415 -414 0
-415 413 414 0
-416 12 0
-416 198 0
416 -12 -198 0
-417 416 0
-417 313 0
417 -416 -313 0
418 -415 0
418 -417 0
-418 415 417 0
-419 325 0
-419 198 0
419 -325 -198 0
-420 419 0
-420 313 0
420 -419 -313 0
421 -418 0
421 -420 0
-421 418 420 0
-422 329 0
-422 198 0
422 -329 -198 0
-423 422 0
-423 313 0
423 -422 -313 0
424 -421 0
424 -423 0
-424 421 423 0
-425 21 0
-425 198 0
425 -21 -198 0
-426 425 0
-426 313 0
426 -425 -313 0
427 -424 0
427 -426 0
-427 424 426 0
-428 208 0
-428 313 0
428 -208 -313 0
429 -427 0
429 -428 0
-429 427 428 0
-430 39 0
-430 198 0
430 -39 -198 0
-431 430 0
-431 313 0
431 -430 -313 0
432 -429 0
432 -431 0
-432 429 431 0
-433 54 0
-433 198 0
433 -54 -198 0
-434 433 0
-434 313 0
434 -433 -313 0
435 -432 0
435 -434 0
-435 432 434 0
-436 217 0
-436 313 0
436 -217 -313 0
437 -435 0
437 -436 0
-437 435 436 0
-438 353 0
-438 198 0
438 -353 -198 0
-439 438 0
-439 313 0
439 -438 -313 0
440 -437 0
440 -439 0
-440 437 439 0
-441 357 0
-441 198 0
441 -357 -198 0
-442 441 0
-442 313 0
442 -441 -313 0
443 -440 0
443 -442 0
-443 440 442 0
-444 224 0
-444 313 0
444 -224 -313 0
445 -443 0
445 -444 0
-445 443 444 0
-446 74 0
-446 198 0
446 -74 -198 0
-447 446 0
-447 313 0
447 -446 -313 0
448 -445 0
448 -447 0
-448 445 447 0
-449 227 0
-449 313 0
449 -227 -313 0
450 -448 0
450 -449 0
-450 448 449 0
-451 84 0
-451 198 0
451 -84 -198 0
-452 451 0
-452 313 0
452 -451 -313 0
453 -450 0
453 -452 0
-453 450 452 0
-454 89 0
-454 198 0
454 -89 -198 0
-455 454 0
-455 313 0
455 -454 -313 0
456 -453 0
456 -455 0
-456 453 455 0
-457 94 0
-457 198 0
457 -94 -198 0
-458 457 0
-458 313 0
458 -457 -313 0
459 -456 0
459 -458 0
-459 456 458 0
-460 100 0
-460 198 0
460 -100 -198 0
-461 460 0
-461 313 0
461 -460 -313 0
462 -459 0
462 -461 0
-462 459 461 0
-463 107 0
-463 198 0
463 -107 -198 0
-464 463 0
-464 313 0
464 -463 -313 0
465 -462 0
465 -464 0
-465 462 464 0
-466 232 0
-466 313 0
466 -232 -313 0
467 -465 0
467 -466 0
-467 465 466 0
-468 244 0
-468 313 0
468 -244 -313 0
469 -467 0
469 -468 0
-469 467 468 0
-470 118 0
-470 198 0
470 -118 -198 0
-471 470 0
-471 313 0
471 -470 -313 0
472 -469 0
472 -471 0
-472 469 471 0
-473 251 0
-473 313 0
473 -251 -313 0
474 -472 0
474 -473 0
-474 472 473 0
-475 270 0
-475 313 0
475 -270 -313 0
476 -474 0
476 -475 0
-476 474 475 0
-477 273 0
-477 313 0
477 -273 -313 0
478 -476 0
478 -477 0
-478 476 477 0
-479 277 0
-479 313 0
479 -277 -313 0
480 -478 0
480 -479 0
-480 478 479 0
-481 390 0
-481 198 0
481 -390 -198 0
-482 481 0
-482 313 0
482 -481 -313 0
483 -480 0
483 -482 0
-483 480 482 0
-484 283 0
-484 313 0
484 -283 -313 0
485 -483 0
485 -484 0
-485 483 484 0
-486 352 0
-486 117 0
486 -352 -117 0
-487 486 0
-487 198 0
487 -486 -198 0
-488 487 0
-488 313 0
488 -487 -313 0
489 -485 0
489 -488 0
-489 485 488 0
-490 288 0
-490 313 0
490 -288 -313 0
491 -489 0
491 -490 0
-491 489 490 0
-492 291 0
-492 313 0
492 -291 -313 0
493 -491 0
493 -492 0
-493 491 492 0
-494 73 0
-494 117 0
494 -73 -117 0
-495 494 0
-495 198 0
495 -494 -198 0
-496 495 0
-496 313 0
496 -495 -313 0
497 -493 0
497 -496 0
-497 493 496 0
-498 171 0
-498 198 0
498 -171 -198 0
-499 498 0
-499 313 0
499 -498 -313 0
500 -497 0
500 -499 0
-500 497 499 0
-501 294 0
-501 313 0
501 -294 -313 0
502 -500 0
502 -501 0
-502 500 501 0
-503 301 0
-503 313 0
503 -301 -313 0
504 -502 0
504 -503 0
-504 502 503 0
505 -9 11 0
505 9 -11 0
-505 -9 -11 0
-505 9 11 0
506 -505 13 0
506 505 -13 0
-506 -505 -13 0
-506 505 13 0
507 -506 15 0
507 506 -15 0
-507 -506 -15 0
-507 506 15 0
508 -504 -507 0
508 504 507 0
-508 -504 507 0
-508 504 -507 0
508 0
